CMD:
./solvers/bin/cadical --plain --no-reduce -t 1600 ./data/cnfs//qspiflash_qflexpress_divfive-p029/qspiflash_qflexpress_divfive-p029.56.cnf

c --- [ banner ] -------------------------------------------------------------
c 
c CaDiCaL SAT Solver
c Copyright (c) 2016-2024
c A. Biere, M. Fleury, N. Froleyks, K. Fazekas, F. Pollitt, T. Faller
c JKU Linz, University of Freiburg, TU Wien
c 
c Version 2.1.3 5296d3d2a9bf48c154ab2acb5e44625776d821bf
c g++ (Gentoo 12.3.1_p20230526 p2) 12.3.1 20230526 -Wall -Wextra -O3 -DNDEBUG
c Sat Aug 9 07:26:21 PDT 2025 Linux cedar2.int.cedar.computecanada.ca 5.14.0-362.24.2.el9_3.x86_64 x86_64
c 
c --- [ limit ] --------------------------------------------------------------
c 
c setting time limit to 1600 seconds real time (due to '-t 1600')
c 
c --- [ parsing input ] ------------------------------------------------------
c 
c reading DIMACS file from './data/cnfs//qspiflash_qflexpress_divfive-p029/qspiflash_qflexpress_divfive-p029.56.cnf'
c opening file to read './data/cnfs//qspiflash_qflexpress_divfive-p029/qspiflash_qflexpress_divfive-p029.56.cnf'
c found 'p cnf 149999 437075' header
c parsed 437075 clauses in 0.07 seconds process time
c 
c --- [ options ] ------------------------------------------------------------
c 
c   --compact=false                (different from default 'true')
c   --decompose=false              (different from default 'true')
c   --deduplicate=false            (different from default 'true')
c   --elim=false                   (different from default 'true')
c   --probe=false                  (different from default 'true')
c   --reduce=false                 (different from default 'true')
c   --subsume=false                (different from default 'true')
c   --ternary=false                (different from default 'true')
c   --transred=false               (different from default 'true')
c   --vivify=false                 (different from default 'true')
c 
c --- [ solving ] ------------------------------------------------------------
c 
c time measured in process time since initialization
c 
c  seconds  reductions  redundant  irredundant
c         MB    restarts       trail       variables
c          level   conflicts       glue          remaining
c 
c *  0.07 72  0 0   0    0    0  0% 0 422476 141176 94%
c {  0.10 74  0 0   0    0    0  0% 0 422476 141176 94%
c i  0.12 75 14 0   0   30   22 11% 3 422476 141081 94%
c i  0.12 75 14 0   0   31   22 12% 3 422476 140784 94%
c i  0.12 75 14 0   0   32   22 12% 2 422476 140689 94%
c i  0.17 75 28 0   0  156  133 13% 9 422476 140688 94%
c i  0.19 75 24 0   0  294  252 12% 6 422476 140684 94%
c i  0.22 75 24 0   5  456  356 12% 7 422476 140680 94%
c i  0.22 75 24 0   9  510  404 12% 6 422476 140679 94%
c i  0.30 75 35 0  26  954  806 14% 8 422476 140678 94%
c }  0.31 75 35 0  26 1001  842 14% 8 422476 140678 94%
c [  0.31 75  0 0  26 1001  842  0% 0 422476 140678 94%
c O  0.33 75 810 0  26 1002  843 84% 1 422476 140678 94%
c i  0.33 75 801 0  26 1010  850 84% 1 422476 140674 94%
c i  0.34 76 794 0  26 1091  915 85% 4 422476 140670 94%
c i  0.36 76 771 0  26 1196 1007 81% 4 422476 140666 94%
c i  0.42 76 731 0  26 1568 1353 75% 5 422476 140662 94%
c i  0.43 76 723 0  26 1666 1439 74% 5 422476 140658 94%
c i  0.45 76 712 0  26 1811 1575 72% 5 422476 140654 94%
c i  0.46 76 711 0  26 1814 1577 72% 5 422476 140650 94%
c 
c  seconds   reductions  redundant  irredundant
c         MB     restarts       trail       variables
c           level   conflicts       glue          remaining
c 
c i  0.49 76 699 0  27 2064 1801 71% 6 422476 140646 94%
c i  0.49 76 699 0  27 2065 1801 71% 6 422476 140642 94%
c i  0.49 76 697 0  27 2067 1802 70% 6 422476 140638 94%
c i  0.52 76 581 0  27 2297 2005 60% 6 422476 140634 94%
c i  0.52 76 581 0  27 2298 2005 60% 6 422476 140630 94%
c ]  0.61 76 390 0  27 3003 2617 45% 6 422476 140630 94%
c {  0.61 76 35 0  27 3003 2617 14% 8 422476 140630 94%
c F  0.61 76 35 0  27 3004 2618 14% 8 422476 140630 94%
c i  0.61 76 33 0  27 3119 2719 14% 7 422476 140444 94%
c i  0.61 76 33 0  27 3123 2722 14% 7 422476 140441 94%
c i  0.64 76 33 0  32 3328 2894 14% 7 422476 140328 94%
c i  0.69 76 35 0  36 3744 3264 15% 6 422476 140327 94%
c i  0.76 76 34 0  36 4403 3840 17% 6 422476 140326 94%
c i  0.80 76 33 0  36 4736 4137 18% 5 422476 140322 94%
c i  0.81 76 32 0  36 4864 4246 17% 5 422476 140321 94%
c i  0.83 76 31 0  36 5089 4443 17% 5 422476 140320 94%
c i  0.85 76 35 0  37 5315 4656 17% 5 422476 140319 94%
c i  0.86 76 35 0  40 5553 4876 17% 5 422476 140318 94%
c i  0.89 76 35 0  51 5766 5064 17% 5 422476 140317 94%
c #  0.91 76 35 0  51 6005 5275 17% 5 422476 140317 94%
c 
c  seconds  reductions  redundant  irredundant
c         MB    restarts       trail       variables
c          level   conflicts       glue          remaining
c 
c i  0.92 76 35 0  51 6061 5326 17% 5 422476 140313 94%
c i  0.93 77 35 0  51 6211 5463 17% 5 422476 140309 94%
c i  0.94 77 35 0  51 6364 5600 18% 5 422476 140305 94%
c i  0.98 77 35 0  62 6607 5809 18% 5 422476 140301 94%
c i  0.99 77 34 0  63 6810 5995 17% 5 422476 140134 93%
c i  1.01 77 34 0  73 6907 6085 17% 5 422476 139966 93%
c }  1.03 77 34 0  98 7003 6176 17% 5 422476 139966 93%
c [  1.03 77 390 0  98 7003 6176 45% 6 422476 139966 93%
c i  1.14 77 275 0  99 7951 6994 35% 8 422476 139962 93%
c i  1.15 77 270 0  99 8013 7049 34% 8 422476 139958 93%
c i  1.18 77 251 0  99 8252 7241 33% 8 422476 139954 93%
c i  1.21 77 243 0  99 8366 7322 32% 7 422476 135393 90%
c i  1.21 77 243 0  99 8368 7323 32% 7 422476 134021 89%
c ]  1.21 77 242 0  99 8389 7339 32% 7 422476 131930 88%
c 0  1.21 77 242 0  99 8389 7339 32% 7 422476 131930 88%
c 
c --- [ result ] -------------------------------------------------------------
c 
s UNSATISFIABLE
c 
c --- [ run-time profiling ] -------------------------------------------------
c 
c process time taken by individual solving procedures
c (percentage relative to process time for solving)
c 
c         1.14   99.99% search
c         0.63   54.95% unstable
c         0.48   42.22% stable
c         0.07    6.05% parse
c         0.03    2.81% lucky
c         0.00    0.00% simplify
c   =================================
c         1.14   94.26% solve
c 
c last line shows process time for solving
c (percentage relative to total process time)
c 
c --- [ statistics ] ---------------------------------------------------------
c 
c chronological:              3351        39.95 %  of conflicts
c conflicts:                  8389      7340.41    per second
c decisions:                 20116     17601.58    per second
c fixed:                     18068        12.05 %  of all variables
c learned:                    7948        94.74 %  per conflict
c learned_lits:             168187       100.00 %  learned literals
c minimized:                     0         0.00 %  learned literals
c shrunken:                  23933        14.23 %  learned literals
c minishrunken:              28740        17.09 %  learned literals
c otfs:                         96         1.14 %  of conflict
c propagations:           18041607        15.79 M  per second
c rephased:                      3      2796.33    interval
c restarts:                     99        84.74    interval
c stabilizing:                   2        40.39 %  of conflicts
c subsumed:                    566         0.13 %  of all clauses
c strengthened:                 96         0.02 %  of all clauses
c 
c seconds are measured in process time for solving
c 
c --- [ resources ] ----------------------------------------------------------
c 
c total process time since initialization:         1.21    seconds
c total real time since initialization:            1.23    seconds
c maximum resident set size of process:           75.73    MB
c 
c --- [ shutting down ] ------------------------------------------------------
c 
c exit 20
